(set-logic QF_S)
(declare-fun var0 () String)
(declare-fun var1 () String)
(declare-fun var2 () String)
(declare-fun var3 () String)
(declare-fun var4 () String)
(declare-fun var5 () String)
(declare-fun var6 () String)
(declare-fun var7 () String)
(declare-fun var8 () String)
(declare-fun var9 () String)
(declare-fun var10 () String)
(declare-fun var11 () String)
(declare-fun var12 () String)
(declare-fun var13 () String)
(declare-fun var14 () String)
(declare-fun var15 () String)
(declare-fun var16 () String)
(declare-fun var17 () String)
(declare-fun var18 () String)
(declare-fun var19 () String)
(declare-fun var20 () String)
(declare-fun var21 () String)
(declare-fun var22 () String)
(declare-fun var23 () String)
(declare-fun var24 () String)
(declare-fun var25 () String)
(declare-fun var26 () String)
(declare-fun var27 () String)
(declare-fun var28 () String)
(declare-fun var29 () String)
(declare-fun var30 () String)
(declare-fun var31 () String)
(declare-fun var32 () String)
(declare-fun var33 () String)
(declare-fun var34 () String)
(declare-fun var35 () String)
(declare-fun var36 () String)
(declare-fun var37 () String)
(declare-fun var38 () String)
(declare-fun var39 () String)
(declare-fun var40 () String)
(declare-fun var41 () String)
(declare-fun var42 () String)
(declare-fun var43 () String)
(declare-fun var44 () String)
(declare-fun var45 () String)
(declare-fun var46 () String)
(declare-fun var47 () String)
(declare-fun var48 () String)
(declare-fun var49 () String)
(declare-fun var50 () String)
(declare-fun var51 () String)
(declare-fun var52 () String)
(declare-fun var53 () String)
(declare-fun var54 () String)
(declare-fun var55 () String)
(declare-fun var56 () String)
(declare-fun var57 () String)
(declare-fun var58 () String)
(declare-fun var59 () String)
(declare-fun var60 () String)
(assert (= var0 (str.++ var1 var2)))
(assert (= var2 (str.++ var3 var4)))
(assert (= var4 (str.++ var5 var6)))
(assert (= var6 (str.++ var7 var8)))
(assert (= var8 (str.++ var9 var10)))
(assert (= var10 (str.++ var11 var12)))
(assert (= var12 (str.++ var13 var14)))
(assert (= var14 (str.++ var15 var16)))
(assert (= var16 (str.++ var17 var18)))
(assert (= var18 (str.++ var19 var20)))
(assert (= var20 (str.++ var21 var22)))
(assert (= var22 (str.++ var23 var24)))
(assert (= var24 (str.++ var25 var26)))
(assert (= var26 (str.++ var27 var28)))
(assert (= var28 (str.++ var29 var30)))
(assert (= var30 (str.++ var31 var32)))
(assert (= var32 (str.++ var33 var34)))
(assert (= var34 (str.++ var35 var36)))
(assert (= var36 (str.++ var37 var38)))
(assert (= var38 (str.++ var39 var40)))
(assert (= var40 (str.++ var41 var42)))
(assert (= var42 (str.++ var43 var44)))
(assert (= var44 (str.++ var45 var46)))
(assert (= var46 (str.++ var47 var48)))
(assert (= var48 (str.++ var49 var50)))
(assert (= var50 (str.++ var51 var52)))
(assert (= var52 (str.++ var53 var54)))
(assert (= var54 (str.++ var55 var56)))
(assert (= var56 (str.++ var57 var58)))
(assert (= var58 (str.++ var59 var60)))
(assert (= var0 "solution"))
(assert (= "=" (str.at var53 89)))
(assert (= "T" (str.at var37 124)))
(assert (= "J" (str.at var27 296)))
(assert (= ")" (str.at var5 549)))
(assert (= "u" (str.at var57 766)))
(assert (= "D" (str.at var57 170)))
(assert (= "i" (str.at var18 90)))
(assert (= "p" (str.at var30 529)))
(assert (= "2" (str.at var14 518)))
(assert (= "{" (str.at var53 979)))
(assert (= "r" (str.at var3 195)))
(assert (= "B" (str.at var4 744)))
(assert (= "L" (str.at var25 633)))
(assert (= "K" (str.at var9 297)))
(assert (= "V" (str.at var12 324)))
(assert (= "(" (str.at var41 150)))
(assert (= "!" (str.at var17 836)))
(assert (= ";" (str.at var23 808)))
(assert (= "t" (str.at var49 687)))
(assert (= "'" (str.at var33 351)))
(assert (= "s" (str.at var40 419)))
(assert (= "%" (str.at var49 831)))
(assert (= "3" (str.at var13 943)))
(assert (= "t" (str.at var6 754)))
(assert (= "T" (str.at var7 71)))
(assert (= "r" (str.at var58 419)))
(assert (= "w" (str.at var44 235)))
(assert (= "E" (str.at var26 792)))
(assert (= "9" (str.at var18 220)))
(assert (= "&" (str.at var54 552)))
(assert (= "D" (str.at var5 26)))
(assert (= ";" (str.at var51 11)))
(assert (= "R" (str.at var47 11)))
(assert (= "U" (str.at var2 951)))
(assert (= "T" (str.at var18 705)))
(assert (= "s" (str.at var39 373)))
(assert (= "b" (str.at var9 337)))
(assert (= "m" (str.at var30 825)))
(assert (= "M" (str.at var26 497)))
(assert (= "Z" (str.at var8 723)))
(assert (= "7" (str.at var18 124)))
(assert (= "o" (str.at var14 741)))
(assert (= "%" (str.at var29 766)))
(assert (= "a" (str.at var23 213)))
(assert (= "m" (str.at var54 562)))
(assert (= "E" (str.at var31 809)))
(assert (= "$" (str.at var16 286)))
(assert (= "/" (str.at var6 723)))
(assert (= "g" (str.at var30 264)))
(assert (= "W" (str.at var12 989)))
(assert (= "9" (str.at var32 628)))
(assert (= "0" (str.at var56 257)))
(assert (= "8" (str.at var28 454)))
(assert (= "7" (str.at var38 597)))
(assert (= "," (str.at var42 657)))
(assert (= "." (str.at var52 749)))
(assert (= "*" (str.at var25 2)))
(assert (= "h" (str.at var36 588)))
(assert (= "K" (str.at var59 135)))
(assert (= "j" (str.at var1 453)))
(assert (= "I" (str.at var49 821)))
(assert (= "~" (str.at var29 329)))
(assert (= "h" (str.at var52 650)))
(assert (= "A" (str.at var18 154)))
(assert (= "w" (str.at var2 115)))
(assert (= "P" (str.at var21 571)))
(assert (= "[" (str.at var30 716)))
(assert (= "*" (str.at var40 100)))
(assert (= "o" (str.at var53 605)))
(assert (= "q" (str.at var19 847)))
(assert (= "D" (str.at var10 38)))
(assert (= "x" (str.at var58 182)))
(assert (= "M" (str.at var3 589)))
(assert (= "?" (str.at var18 163)))
(assert (= "I" (str.at var36 612)))
(assert (= "y" (str.at var4 314)))
(assert (= "x" (str.at var46 796)))
(assert (= "v" (str.at var45 864)))
(assert (= "<" (str.at var20 976)))
(assert (= "A" (str.at var33 296)))
(assert (= "M" (str.at var49 965)))
(assert (= "H" (str.at var51 888)))
(assert (= "}" (str.at var34 261)))
(assert (= "1" (str.at var40 139)))
(assert (= "'" (str.at var16 908)))
(assert (= "h" (str.at var8 175)))
(assert (= "," (str.at var24 651)))
(assert (= "`" (str.at var36 385)))
(assert (= "u" (str.at var11 251)))
(assert (= "^" (str.at var32 915)))
(assert (= "V" (str.at var44 127)))
(assert (= ";" (str.at var32 544)))
(assert (= "K" (str.at var53 284)))
(assert (= "(" (str.at var39 558)))
(assert (= "-" (str.at var38 11)))
(assert (= "H" (str.at var60 304)))
(assert (= "m" (str.at var23 719)))
(assert (= "&" (str.at var10 401)))
(assert (= "6" (str.at var19 9)))
(assert (= "f" (str.at var15 590)))
(assert (= "Y" (str.at var2 884)))
(assert (= "b" (str.at var32 863)))
(assert (= "/" (str.at var8 931)))
(assert (= ";" (str.at var51 235)))
(assert (= "!" (str.at var55 136)))
(assert (= "K" (str.at var27 27)))
(assert (= "`" (str.at var43 362)))
(assert (= "9" (str.at var46 989)))
(assert (= "," (str.at var5 375)))
(assert (= "U" (str.at var32 498)))
(assert (= "c" (str.at var48 140)))
(assert (= "\\" (str.at var36 210)))
(assert (= "y" (str.at var38 71)))
(assert (= "8" (str.at var24 680)))
(assert (= "+" (str.at var55 708)))
(assert (= "4" (str.at var58 704)))
(assert (= "e" (str.at var4 138)))
(assert (= "i" (str.at var39 578)))
(assert (= "/" (str.at var34 128)))
(assert (= "m" (str.at var34 349)))
(assert (= "o" (str.at var32 518)))
(assert (= "Q" (str.at var37 819)))
(assert (= "Z" (str.at var51 364)))
(assert (= "a" (str.at var48 898)))
(assert (= "b" (str.at var51 434)))
(assert (= ";" (str.at var4 1)))
(assert (= "{" (str.at var6 120)))
(assert (= "F" (str.at var26 351)))
(assert (= "5" (str.at var11 891)))
(assert (= "y" (str.at var13 836)))
(assert (= "B" (str.at var14 380)))
(assert (= "C" (str.at var2 591)))
(assert (= "m" (str.at var49 649)))
(assert (= "w" (str.at var31 926)))
(assert (= "M" (str.at var36 397)))
(assert (= "$" (str.at var49 310)))
(assert (= "}" (str.at var60 840)))
(assert (= "'" (str.at var13 969)))
(assert (= "&" (str.at var43 990)))
(assert (= "5" (str.at var16 7)))
(assert (= "|" (str.at var54 734)))
(assert (= "Y" (str.at var27 202)))
(assert (= "Y" (str.at var57 342)))
(assert (= "^" (str.at var48 254)))
(assert (= "(" (str.at var52 919)))
(assert (= "Q" (str.at var13 74)))
(assert (= "4" (str.at var34 541)))
(assert (= "." (str.at var6 692)))
(assert (= "Q" (str.at var35 79)))
(assert (= "p" (str.at var55 499)))
(assert (= "P" (str.at var55 438)))
(assert (= "8" (str.at var55 986)))
(assert (= "4" (str.at var25 538)))
(assert (= "Q" (str.at var10 995)))
(assert (= "I" (str.at var18 990)))
(assert (= "B" (str.at var10 545)))
(assert (= "P" (str.at var35 160)))
(assert (= "8" (str.at var4 956)))
(assert (= "B" (str.at var53 176)))
(assert (= "k" (str.at var49 469)))
(assert (= "C" (str.at var46 611)))
(assert (= "d" (str.at var17 849)))
(assert (= "z" (str.at var41 411)))
(assert (= "p" (str.at var31 792)))
(assert (= "Y" (str.at var33 100)))
(assert (= "z" (str.at var0 751)))
(assert (= "7" (str.at var10 874)))
(assert (= "Q" (str.at var50 963)))
(assert (= "{" (str.at var9 371)))
(assert (= ":" (str.at var46 635)))
(assert (= "u" (str.at var7 80)))
(assert (= "$" (str.at var56 476)))
(assert (= "1" (str.at var15 973)))
(assert (= "g" (str.at var31 244)))
(assert (= "-" (str.at var37 982)))
(assert (= "G" (str.at var24 916)))
(assert (= "J" (str.at var35 795)))
(assert (= """" (str.at var4 99)))
(assert (= "@" (str.at var37 290)))
(assert (= "J" (str.at var4 516)))
(assert (= "F" (str.at var50 306)))
(assert (= "J" (str.at var3 51)))
(assert (= "{" (str.at var28 479)))
(assert (= "P" (str.at var54 299)))
(assert (= "D" (str.at var21 448)))
(assert (= "R" (str.at var47 487)))
(assert (= "E" (str.at var31 689)))
(assert (= "Q" (str.at var53 416)))
(assert (= "k" (str.at var3 590)))
(assert (= "o" (str.at var29 634)))
(assert (= "$" (str.at var52 33)))
(assert (= "r" (str.at var7 410)))
(assert (= "{" (str.at var30 700)))
(assert (= "%" (str.at var0 455)))
(assert (= "<" (str.at var22 312)))
(assert (= ";" (str.at var23 138)))
(assert (= "w" (str.at var50 1000)))
(assert (= "h" (str.at var4 653)))
(assert (= "N" (str.at var17 789)))
(assert (= "i" (str.at var52 460)))
(assert (= "0" (str.at var44 148)))
(assert (= "4" (str.at var3 986)))
(assert (= "k" (str.at var52 287)))
(assert (= "H" (str.at var59 504)))
(assert (= "p" (str.at var40 66)))
(assert (= "D" (str.at var49 278)))
(assert (= "b" (str.at var59 481)))
(assert (= "l" (str.at var7 803)))
(assert (= ":" (str.at var47 158)))
(assert (= "v" (str.at var14 372)))
(assert (= "u" (str.at var43 401)))
(assert (= "5" (str.at var36 130)))
(assert (= "!" (str.at var25 405)))
(assert (= "U" (str.at var32 469)))
(assert (= "A" (str.at var22 699)))
(assert (= "M" (str.at var36 605)))
(assert (= "#" (str.at var19 574)))
(assert (= "0" (str.at var11 802)))
(assert (= "W" (str.at var24 880)))
(assert (= ")" (str.at var23 37)))
(assert (= "@" (str.at var9 412)))
(assert (= "l" (str.at var47 807)))
(assert (= "d" (str.at var1 354)))
(assert (= "," (str.at var28 152)))
(assert (= "$" (str.at var12 766)))
(assert (= "9" (str.at var21 215)))
(assert (= "!" (str.at var31 599)))
(assert (= "=" (str.at var43 488)))
(assert (= "/" (str.at var45 548)))
(assert (= "Y" (str.at var27 186)))
(assert (= "o" (str.at var11 135)))
(assert (= "Q" (str.at var22 124)))
(assert (= "0" (str.at var57 740)))
(assert (= "w" (str.at var50 86)))
(assert (= "I" (str.at var60 1000)))
(assert (= "y" (str.at var57 918)))
(assert (= "e" (str.at var29 533)))
(assert (= ">" (str.at var35 43)))
(assert (= "u" (str.at var6 656)))
(assert (= "p" (str.at var44 50)))
(assert (= "u" (str.at var55 726)))
(check-sat)
(get-model)